(declare-const X String)
; /\x2exls([\?\x5c\x2f]|$)/smiU
(assert (not (str.in_re X (re.++ (str.to_re "/.xls") (re.union (str.to_re "?") (str.to_re "\u{5c}") (str.to_re "/")) (str.to_re "/smiU\u{a}")))))
; \x23\x23\x23\x23Host\x3ASubject\x3Awww\x2Epcsentinelsoftware\x2EcomHost\x3AWeHost\x3awww\x2Ewowokay\x2Ecom/wowokaybar\x2Ephp
(assert (str.in_re X (str.to_re "####Host:Subject:www.pcsentinelsoftware.comHost:WeHost:www.wowokay.com/wowokaybar.php\u{a}")))
; /\x2ehtc([\?\x5c\x2f]|$)/smiU
(assert (not (str.in_re X (re.++ (str.to_re "/.htc") (re.union (str.to_re "?") (str.to_re "\u{5c}") (str.to_re "/")) (str.to_re "/smiU\u{a}")))))
; BysooTBwhenu\x2EcomToolbarWeAgentUser-Agent\x3ahasHost\x3atoWebupdate\.cgithis
(assert (str.in_re X (str.to_re "BysooTBwhenu.com\u{1b}ToolbarWeAgentUser-Agent:hasHost:toWebupdate.cgithis\u{a}")))
(check-sat)
